(set-info :smt-lib-version 2.6)
(set-logic QF_ALIA)
(set-info :notes "Adapted for Array Sum evaluation.
Base file: piVC_408ff0.smt2")
(set-info :source |pvc|)
(set-info :category "industrial")
(declare-fun length5 () Int)
(declare-fun length4 () Int)
(declare-fun length3 () Int)
(declare-fun length2 () Int)
(declare-fun length1 () Int)
(declare-fun a2 () (Array Int Int))
(declare-fun i2 () Int)
(declare-fun a1 () (Array Int Int))
(declare-fun i1 () Int)
(declare-fun k () Int)
(declare-fun buf () (Array Int Int))
(declare-fun a2_0 () (Array Int Int))
(declare-fun e () Int)
(declare-fun a1_0 () (Array Int Int))
(declare-fun i_1 () Int)
(declare-fun j_2 () Int)
(declare-fun ix_3 () Int)
(declare-fun ix_4 () Int)
(declare-fun ix_5 () Int)
(assert (let ((?v_6 (select a1_0 j_2)) (?v_5 (select a1_0 ix_5)) (?v_11 (select a1_0 ix_4)) (?v_14 (select a1_0 ix_3)) (?v_17 (select a1_0 i_1)) (?v_20 (select a1_0 i2)) (?v_23 (select a1_0 i1)) (?v_46 (select a2_0 j_2)) (?v_45 (select a2_0 ix_5)) (?v_50 (select a2_0 ix_4)) (?v_53 (select a2_0 ix_3)) (?v_56 (select a2_0 i_1)) (?v_59 (select a2_0 i2)) (?v_62 (select a2_0 i1)) (?v_133 (select a1 j_2)) (?v_135 (select a1 ix_5)) (?v_136 (select a1 ix_4)) (?v_137 (select a1 ix_3)) (?v_138 (select a1 i_1)) (?v_139 (select a1 i2)) (?v_103 (select a1 i1)) (?v_140 (select a2 j_2)) (?v_141 (select a2 ix_5)) (?v_142 (select a2 ix_4)) (?v_143 (select a2 ix_3)) (?v_144 (select a2 i_1)) (?v_106 (select a2 i2)) (?v_146 (select a2 i1)) (?v_132 (select buf j_2)) (?v_120 (select buf ix_5)) (?v_122 (select buf ix_4)) (?v_124 (select buf ix_3)) (?v_126 (select buf i_1)) (?v_128 (select buf i2)) (?v_130 (select buf i1)) (?v_145 (< 0 1)) (?v_4 (* (- 1) j_2))) (let ((?v_0 (< 0 ?v_4)) (?v_3 (* (- 1) ix_5))) (let ((?v_36 (< 0 (+ ?v_3 j_2))) (?v_1 (* (- 1) length2))) (let ((?v_26 (< 0 (+ ?v_1 1 ix_5))) (?v_2 (* (- 1) ?v_6)) (?v_8 (* (- 1) ix_4))) (let ((?v_37 (< 0 (+ ?v_8 j_2))) (?v_9 (< 0 (+ ?v_1 1 ix_4))) (?v_12 (* (- 1) ix_3))) (let ((?v_40 (< 0 (+ ?v_12 j_2))) (?v_13 (< 0 (+ ?v_1 1 ix_3))) (?v_15 (* (- 1) i_1))) (let ((?v_151 (+ ?v_15 j_2))) (let ((?v_41 (< 0 ?v_151)) (?v_16 (< 0 (+ ?v_1 1 i_1))) (?v_18 (* (- 1) i2))) (let ((?v_42 (< 0 (+ ?v_18 j_2))) (?v_19 (< 0 (+ ?v_1 1 i2))) (?v_21 (* (- 1) i1))) (let ((?v_43 (< 0 (+ ?v_21 j_2))) (?v_22 (< 0 (+ ?v_1 1 i1))) (?v_7 (< 0 ?v_3)) (?v_44 (< 0 (+ ?v_4 ix_5))) (?v_24 (< 0 (+ ?v_1 1 j_2))) (?v_10 (* (- 1) ?v_5)) (?v_47 (< 0 (+ ?v_8 ix_5))) (?v_51 (< 0 (+ ?v_12 ix_5))) (?v_54 (< 0 (+ ?v_15 ix_5))) (?v_57 (< 0 (+ ?v_18 ix_5))) (?v_60 (< 0 (+ ?v_21 ix_5))) (?v_25 (< 0 ?v_8)) (?v_63 (< 0 (+ ?v_4 ix_4))) (?v_27 (* (- 1) ?v_11)) (?v_65 (< 0 (+ ?v_3 ix_4))) (?v_68 (< 0 (+ ?v_12 ix_4))) (?v_69 (< 0 (+ ?v_15 ix_4))) (?v_70 (< 0 (+ ?v_18 ix_4))) (?v_71 (< 0 (+ ?v_21 ix_4))) (?v_28 (< 0 ?v_12)) (?v_72 (< 0 (+ ?v_4 ix_3))) (?v_29 (* (- 1) ?v_14)) (?v_73 (< 0 (+ ?v_3 ix_3))) (?v_75 (< 0 (+ ?v_8 ix_3))) (?v_76 (< 0 (+ ?v_15 ix_3))) (?v_77 (< 0 (+ ?v_18 ix_3))) (?v_78 (< 0 (+ ?v_21 ix_3))) (?v_30 (< 0 ?v_15)) (?v_79 (< 0 (+ ?v_4 i_1))) (?v_31 (* (- 1) ?v_17)) (?v_80 (< 0 (+ ?v_3 i_1))) (?v_82 (< 0 (+ ?v_8 i_1))) (?v_83 (< 0 (+ ?v_12 i_1))) (?v_84 (< 0 (+ ?v_18 i_1))) (?v_85 (< 0 (+ ?v_21 i_1))) (?v_32 (< 0 ?v_18)) (?v_86 (< 0 (+ ?v_4 i2))) (?v_33 (* (- 1) ?v_20)) (?v_87 (< 0 (+ ?v_3 i2))) (?v_89 (< 0 (+ ?v_8 i2))) (?v_90 (< 0 (+ ?v_12 i2))) (?v_91 (< 0 (+ ?v_15 i2))) (?v_92 (< 0 (+ ?v_21 i2))) (?v_34 (< 0 ?v_21)) (?v_93 (< 0 (+ ?v_4 i1))) (?v_35 (* (- 1) ?v_23)) (?v_94 (< 0 (+ ?v_3 i1))) (?v_96 (< 0 (+ ?v_8 i1))) (?v_97 (< 0 (+ ?v_12 i1))) (?v_98 (< 0 (+ ?v_15 i1))) (?v_99 (< 0 (+ ?v_18 i1))) (?v_38 (* (- 1) length1))) (let ((?v_66 (< 0 (+ ?v_38 1 ix_5))) (?v_39 (* (- 1) ?v_46)) (?v_48 (< 0 (+ ?v_38 1 ix_4))) (?v_52 (< 0 (+ ?v_38 1 ix_3))) (?v_55 (< 0 (+ ?v_38 1 i_1))) (?v_58 (< 0 (+ ?v_38 1 i2))) (?v_61 (< 0 (+ ?v_38 1 i1))) (?v_64 (< 0 (+ ?v_38 1 j_2))) (?v_49 (* (- 1) ?v_45)) (?v_67 (* (- 1) ?v_50)) (?v_74 (* (- 1) ?v_53)) (?v_81 (* (- 1) ?v_56)) (?v_88 (* (- 1) ?v_59)) (?v_95 (* (- 1) ?v_62))) (let ((?v_150 (and (and (and (and (and (and (and (and (and (and (and (and (and (and (and (and (and (and (and (and (and (and (and (and (and (and (and (and (and (and (and (and (and (and (and (and (and (and (and (and (and (and (and (or (or ?v_0 (or ?v_36 ?v_26)) (<= 0 (+ ?v_2 ?v_5))) (or (or ?v_0 (or ?v_37 ?v_9)) (<= 0 (+ ?v_2 ?v_11)))) (or (or ?v_0 (or ?v_40 ?v_13)) (<= 0 (+ ?v_2 ?v_14)))) (or (or ?v_0 (or ?v_41 ?v_16)) (<= 0 (+ ?v_2 ?v_17)))) (or (or ?v_0 (or ?v_42 ?v_19)) (<= 0 (+ ?v_2 ?v_20)))) (or (or ?v_0 (or ?v_43 ?v_22)) (<= 0 (+ ?v_2 ?v_23)))) (or (or ?v_7 (or ?v_44 ?v_24)) (<= 0 (+ ?v_10 ?v_6)))) (or (or ?v_7 (or ?v_47 ?v_9)) (<= 0 (+ ?v_10 ?v_11)))) (or (or ?v_7 (or ?v_51 ?v_13)) (<= 0 (+ ?v_10 ?v_14)))) (or (or ?v_7 (or ?v_54 ?v_16)) (<= 0 (+ ?v_10 ?v_17)))) (or (or ?v_7 (or ?v_57 ?v_19)) (<= 0 (+ ?v_10 ?v_20)))) (or (or ?v_7 (or ?v_60 ?v_22)) (<= 0 (+ ?v_10 ?v_23)))) (or (or ?v_25 (or ?v_63 ?v_24)) (<= 0 (+ ?v_27 ?v_6)))) (or (or ?v_25 (or ?v_65 ?v_26)) (<= 0 (+ ?v_27 ?v_5)))) (or (or ?v_25 (or ?v_68 ?v_13)) (<= 0 (+ ?v_27 ?v_14)))) (or (or ?v_25 (or ?v_69 ?v_16)) (<= 0 (+ ?v_27 ?v_17)))) (or (or ?v_25 (or ?v_70 ?v_19)) (<= 0 (+ ?v_27 ?v_20)))) (or (or ?v_25 (or ?v_71 ?v_22)) (<= 0 (+ ?v_27 ?v_23)))) (or (or ?v_28 (or ?v_72 ?v_24)) (<= 0 (+ ?v_29 ?v_6)))) (or (or ?v_28 (or ?v_73 ?v_26)) (<= 0 (+ ?v_29 ?v_5)))) (or (or ?v_28 (or ?v_75 ?v_9)) (<= 0 (+ ?v_29 ?v_11)))) (or (or ?v_28 (or ?v_76 ?v_16)) (<= 0 (+ ?v_29 ?v_17)))) (or (or ?v_28 (or ?v_77 ?v_19)) (<= 0 (+ ?v_29 ?v_20)))) (or (or ?v_28 (or ?v_78 ?v_22)) (<= 0 (+ ?v_29 ?v_23)))) (or (or ?v_30 (or ?v_79 ?v_24)) (<= 0 (+ ?v_31 ?v_6)))) (or (or ?v_30 (or ?v_80 ?v_26)) (<= 0 (+ ?v_31 ?v_5)))) (or (or ?v_30 (or ?v_82 ?v_9)) (<= 0 (+ ?v_31 ?v_11)))) (or (or ?v_30 (or ?v_83 ?v_13)) (<= 0 (+ ?v_31 ?v_14)))) (or (or ?v_30 (or ?v_84 ?v_19)) (<= 0 (+ ?v_31 ?v_20)))) (or (or ?v_30 (or ?v_85 ?v_22)) (<= 0 (+ ?v_31 ?v_23)))) (or (or ?v_32 (or ?v_86 ?v_24)) (<= 0 (+ ?v_33 ?v_6)))) (or (or ?v_32 (or ?v_87 ?v_26)) (<= 0 (+ ?v_33 ?v_5)))) (or (or ?v_32 (or ?v_89 ?v_9)) (<= 0 (+ ?v_33 ?v_11)))) (or (or ?v_32 (or ?v_90 ?v_13)) (<= 0 (+ ?v_33 ?v_14)))) (or (or ?v_32 (or ?v_91 ?v_16)) (<= 0 (+ ?v_33 ?v_17)))) (or (or ?v_32 (or ?v_92 ?v_22)) (<= 0 (+ ?v_33 ?v_23)))) (or (or ?v_34 (or ?v_93 ?v_24)) (<= 0 (+ ?v_35 ?v_6)))) (or (or ?v_34 (or ?v_94 ?v_26)) (<= 0 (+ ?v_35 ?v_5)))) (or (or ?v_34 (or ?v_96 ?v_9)) (<= 0 (+ ?v_35 ?v_11)))) (or (or ?v_34 (or ?v_97 ?v_13)) (<= 0 (+ ?v_35 ?v_14)))) (or (or ?v_34 (or ?v_98 ?v_16)) (<= 0 (+ ?v_35 ?v_17)))) (or (or ?v_34 (or ?v_99 ?v_19)) (<= 0 (+ ?v_35 ?v_20)))) (and (and (and (and (and (and (and (and (and (and (and (and (and (and (and (and (and (and (and (and (and (and (and (and (and (and (and (and (and (and (and (and (and (and (and (and (and (and (and (and (and (or (or ?v_0 (or ?v_36 ?v_66)) (<= 0 (+ ?v_39 ?v_45))) (or (or ?v_0 (or ?v_37 ?v_48)) (<= 0 (+ ?v_39 ?v_50)))) (or (or ?v_0 (or ?v_40 ?v_52)) (<= 0 (+ ?v_39 ?v_53)))) (or (or ?v_0 (or ?v_41 ?v_55)) (<= 0 (+ ?v_39 ?v_56)))) (or (or ?v_0 (or ?v_42 ?v_58)) (<= 0 (+ ?v_39 ?v_59)))) (or (or ?v_0 (or ?v_43 ?v_61)) (<= 0 (+ ?v_39 ?v_62)))) (or (or ?v_7 (or ?v_44 ?v_64)) (<= 0 (+ ?v_49 ?v_46)))) (or (or ?v_7 (or ?v_47 ?v_48)) (<= 0 (+ ?v_49 ?v_50)))) (or (or ?v_7 (or ?v_51 ?v_52)) (<= 0 (+ ?v_49 ?v_53)))) (or (or ?v_7 (or ?v_54 ?v_55)) (<= 0 (+ ?v_49 ?v_56)))) (or (or ?v_7 (or ?v_57 ?v_58)) (<= 0 (+ ?v_49 ?v_59)))) (or (or ?v_7 (or ?v_60 ?v_61)) (<= 0 (+ ?v_49 ?v_62)))) (or (or ?v_25 (or ?v_63 ?v_64)) (<= 0 (+ ?v_67 ?v_46)))) (or (or ?v_25 (or ?v_65 ?v_66)) (<= 0 (+ ?v_67 ?v_45)))) (or (or ?v_25 (or ?v_68 ?v_52)) (<= 0 (+ ?v_67 ?v_53)))) (or (or ?v_25 (or ?v_69 ?v_55)) (<= 0 (+ ?v_67 ?v_56)))) (or (or ?v_25 (or ?v_70 ?v_58)) (<= 0 (+ ?v_67 ?v_59)))) (or (or ?v_25 (or ?v_71 ?v_61)) (<= 0 (+ ?v_67 ?v_62)))) (or (or ?v_28 (or ?v_72 ?v_64)) (<= 0 (+ ?v_74 ?v_46)))) (or (or ?v_28 (or ?v_73 ?v_66)) (<= 0 (+ ?v_74 ?v_45)))) (or (or ?v_28 (or ?v_75 ?v_48)) (<= 0 (+ ?v_74 ?v_50)))) (or (or ?v_28 (or ?v_76 ?v_55)) (<= 0 (+ ?v_74 ?v_56)))) (or (or ?v_28 (or ?v_77 ?v_58)) (<= 0 (+ ?v_74 ?v_59)))) (or (or ?v_28 (or ?v_78 ?v_61)) (<= 0 (+ ?v_74 ?v_62)))) (or (or ?v_30 (or ?v_79 ?v_64)) (<= 0 (+ ?v_81 ?v_46)))) (or (or ?v_30 (or ?v_80 ?v_66)) (<= 0 (+ ?v_81 ?v_45)))) (or (or ?v_30 (or ?v_82 ?v_48)) (<= 0 (+ ?v_81 ?v_50)))) (or (or ?v_30 (or ?v_83 ?v_52)) (<= 0 (+ ?v_81 ?v_53)))) (or (or ?v_30 (or ?v_84 ?v_58)) (<= 0 (+ ?v_81 ?v_59)))) (or (or ?v_30 (or ?v_85 ?v_61)) (<= 0 (+ ?v_81 ?v_62)))) (or (or ?v_32 (or ?v_86 ?v_64)) (<= 0 (+ ?v_88 ?v_46)))) (or (or ?v_32 (or ?v_87 ?v_66)) (<= 0 (+ ?v_88 ?v_45)))) (or (or ?v_32 (or ?v_89 ?v_48)) (<= 0 (+ ?v_88 ?v_50)))) (or (or ?v_32 (or ?v_90 ?v_52)) (<= 0 (+ ?v_88 ?v_53)))) (or (or ?v_32 (or ?v_91 ?v_55)) (<= 0 (+ ?v_88 ?v_56)))) (or (or ?v_32 (or ?v_92 ?v_61)) (<= 0 (+ ?v_88 ?v_62)))) (or (or ?v_34 (or ?v_93 ?v_64)) (<= 0 (+ ?v_95 ?v_46)))) (or (or ?v_34 (or ?v_94 ?v_66)) (<= 0 (+ ?v_95 ?v_45)))) (or (or ?v_34 (or ?v_96 ?v_48)) (<= 0 (+ ?v_95 ?v_50)))) (or (or ?v_34 (or ?v_97 ?v_52)) (<= 0 (+ ?v_95 ?v_53)))) (or (or ?v_34 (or ?v_98 ?v_55)) (<= 0 (+ ?v_95 ?v_56)))) (or (or ?v_34 (or ?v_99 ?v_58)) (<= 0 (+ ?v_95 ?v_59))))) (and (<= 0 length1) (<= 0 length2)))) (?v_102 (* (- 1) k)) (?v_100 (* (- 1) length4)) (?v_101 (* (- 1) length3))) (let ((?v_131 (< 0 (+ ?v_102 1 j_2)))) (let ((?v_104 (or ?v_0 ?v_131)) (?v_105 (* (- 1) ?v_132)) (?v_119 (< 0 (+ ?v_102 1 ix_5)))) (let ((?v_107 (or ?v_7 ?v_119)) (?v_108 (* (- 1) ?v_120)) (?v_121 (< 0 (+ ?v_102 1 ix_4)))) (let ((?v_109 (or ?v_25 ?v_121)) (?v_110 (* (- 1) ?v_122)) (?v_123 (< 0 (+ ?v_102 1 ix_3)))) (let ((?v_111 (or ?v_28 ?v_123)) (?v_112 (* (- 1) ?v_124)) (?v_125 (< 0 (+ ?v_102 1 i_1)))) (let ((?v_113 (or ?v_30 ?v_125)) (?v_114 (* (- 1) ?v_126)) (?v_127 (< 0 (+ ?v_102 1 i2)))) (let ((?v_115 (or ?v_32 ?v_127)) (?v_116 (* (- 1) ?v_128)) (?v_129 (< 0 (+ ?v_102 1 i1)))) (let ((?v_117 (or ?v_34 ?v_129)) (?v_118 (* (- 1) ?v_130)) (?v_152 (+ ?v_105 ?v_126)) (?v_134 (* (- 1) e))) (let ((?v_148 (= 0 (+ ?v_134 ?v_136))) (?v_149 (= 0 (+ ?v_134 ?v_143))) (?v_147 (= 0 (+ ?v_134 ?v_120)))) (and (and ?v_150 (and (<= 0 (+ (* (- 1) length5) k)) (and (and (<= 0 i1) (and (<= 0 (+ ?v_21 length4)) (and (<= 0 i2) (and (<= 0 (+ ?v_18 length3)) (and (<= 0 k) (and (<= 0 (+ ?v_102 length5)) (and (= 0 (+ ?v_21 ?v_18 k)) (and (= 0 (+ ?v_100 ?v_101 length5)) (and (= 0 (+ ?v_1 length4)) (and (= 0 (+ ?v_38 length3)) (and (and (and (and (and (and (and (or (or ?v_0 (< 0 (+ ?v_100 1 j_2))) (= 0 (+ ?v_2 ?v_133))) (or (or ?v_7 (< 0 (+ ?v_100 1 ix_5))) (= 0 (+ ?v_10 ?v_135)))) (or (or ?v_25 (< 0 (+ ?v_100 1 ix_4))) (= 0 (+ ?v_27 ?v_136)))) (or (or ?v_28 (< 0 (+ ?v_100 1 ix_3))) (= 0 (+ ?v_29 ?v_137)))) (or (or ?v_30 (< 0 (+ ?v_100 1 i_1))) (= 0 (+ ?v_31 ?v_138)))) (or (or ?v_32 (< 0 (+ ?v_100 1 i2))) (= 0 (+ ?v_33 ?v_139)))) (or (or ?v_34 (< 0 (+ ?v_100 1 i1))) (= 0 (+ ?v_35 ?v_103)))) (and (and (and (and (and (and (and (or (or ?v_0 (< 0 (+ ?v_101 1 j_2))) (= 0 (+ ?v_39 ?v_140))) (or (or ?v_7 (< 0 (+ ?v_101 1 ix_5))) (= 0 (+ ?v_49 ?v_141)))) (or (or ?v_25 (< 0 (+ ?v_101 1 ix_4))) (= 0 (+ ?v_67 ?v_142)))) (or (or ?v_28 (< 0 (+ ?v_101 1 ix_3))) (= 0 (+ ?v_74 ?v_143)))) (or (or ?v_30 (< 0 (+ ?v_101 1 i_1))) (= 0 (+ ?v_81 ?v_144)))) (or (or ?v_32 (< 0 (+ ?v_101 1 i2))) (= 0 (+ ?v_88 ?v_106)))) (or (or ?v_34 (< 0 (+ ?v_101 1 i1))) (= 0 (+ ?v_95 ?v_146)))) (and (or (= 0 (+ ?v_100 i1)) (and (and (and (and (and (and (or ?v_104 (<= 0 (+ ?v_105 ?v_103))) (or ?v_107 (<= 0 (+ ?v_108 ?v_103)))) (or ?v_109 (<= 0 (+ ?v_110 ?v_103)))) (or ?v_111 (<= 0 (+ ?v_112 ?v_103)))) (or ?v_113 (<= 0 (+ ?v_114 ?v_103)))) (or ?v_115 (<= 0 (+ ?v_116 ?v_103)))) (or ?v_117 (<= 0 (+ ?v_118 ?v_103))))) (and (or (= 0 (+ ?v_101 i2)) (and (and (and (and (and (and (or ?v_104 (<= 0 (+ ?v_105 ?v_106))) (or ?v_107 (<= 0 (+ ?v_108 ?v_106)))) (or ?v_109 (<= 0 (+ ?v_110 ?v_106)))) (or ?v_111 (<= 0 (+ ?v_112 ?v_106)))) (or ?v_113 (<= 0 (+ ?v_114 ?v_106)))) (or ?v_115 (<= 0 (+ ?v_116 ?v_106)))) (or ?v_117 (<= 0 (+ ?v_118 ?v_106))))) (and (and (and (and (and (and (and (and (and (and (and (and (and (and (and (and (and (and (and (and (and (and (and (and (and (and (and (and (and (and (and (and (and (and (and (and (and (and (and (and (and (and (or (or ?v_0 (or ?v_36 ?v_119)) (<= 0 (+ ?v_105 ?v_120))) (or (or ?v_0 (or ?v_37 ?v_121)) (<= 0 (+ ?v_105 ?v_122)))) (or (or ?v_0 (or ?v_40 ?v_123)) (<= 0 (+ ?v_105 ?v_124)))) (or (or ?v_0 (or ?v_41 ?v_125)) (<= 0 ?v_152))) (or (or ?v_0 (or ?v_42 ?v_127)) (<= 0 (+ ?v_105 ?v_128)))) (or (or ?v_0 (or ?v_43 ?v_129)) (<= 0 (+ ?v_105 ?v_130)))) (or (or ?v_7 (or ?v_44 ?v_131)) (<= 0 (+ ?v_108 ?v_132)))) (or (or ?v_7 (or ?v_47 ?v_121)) (<= 0 (+ ?v_108 ?v_122)))) (or (or ?v_7 (or ?v_51 ?v_123)) (<= 0 (+ ?v_108 ?v_124)))) (or (or ?v_7 (or ?v_54 ?v_125)) (<= 0 (+ ?v_108 ?v_126)))) (or (or ?v_7 (or ?v_57 ?v_127)) (<= 0 (+ ?v_108 ?v_128)))) (or (or ?v_7 (or ?v_60 ?v_129)) (<= 0 (+ ?v_108 ?v_130)))) (or (or ?v_25 (or ?v_63 ?v_131)) (<= 0 (+ ?v_110 ?v_132)))) (or (or ?v_25 (or ?v_65 ?v_119)) (<= 0 (+ ?v_110 ?v_120)))) (or (or ?v_25 (or ?v_68 ?v_123)) (<= 0 (+ ?v_110 ?v_124)))) (or (or ?v_25 (or ?v_69 ?v_125)) (<= 0 (+ ?v_110 ?v_126)))) (or (or ?v_25 (or ?v_70 ?v_127)) (<= 0 (+ ?v_110 ?v_128)))) (or (or ?v_25 (or ?v_71 ?v_129)) (<= 0 (+ ?v_110 ?v_130)))) (or (or ?v_28 (or ?v_72 ?v_131)) (<= 0 (+ ?v_112 ?v_132)))) (or (or ?v_28 (or ?v_73 ?v_119)) (<= 0 (+ ?v_112 ?v_120)))) (or (or ?v_28 (or ?v_75 ?v_121)) (<= 0 (+ ?v_112 ?v_122)))) (or (or ?v_28 (or ?v_76 ?v_125)) (<= 0 (+ ?v_112 ?v_126)))) (or (or ?v_28 (or ?v_77 ?v_127)) (<= 0 (+ ?v_112 ?v_128)))) (or (or ?v_28 (or ?v_78 ?v_129)) (<= 0 (+ ?v_112 ?v_130)))) (or (or ?v_30 (or ?v_79 ?v_131)) (<= 0 (+ ?v_114 ?v_132)))) (or (or ?v_30 (or ?v_80 ?v_119)) (<= 0 (+ ?v_114 ?v_120)))) (or (or ?v_30 (or ?v_82 ?v_121)) (<= 0 (+ ?v_114 ?v_122)))) (or (or ?v_30 (or ?v_83 ?v_123)) (<= 0 (+ ?v_114 ?v_124)))) (or (or ?v_30 (or ?v_84 ?v_127)) (<= 0 (+ ?v_114 ?v_128)))) (or (or ?v_30 (or ?v_85 ?v_129)) (<= 0 (+ ?v_114 ?v_130)))) (or (or ?v_32 (or ?v_86 ?v_131)) (<= 0 (+ ?v_116 ?v_132)))) (or (or ?v_32 (or ?v_87 ?v_119)) (<= 0 (+ ?v_116 ?v_120)))) (or (or ?v_32 (or ?v_89 ?v_121)) (<= 0 (+ ?v_116 ?v_122)))) (or (or ?v_32 (or ?v_90 ?v_123)) (<= 0 (+ ?v_116 ?v_124)))) (or (or ?v_32 (or ?v_91 ?v_125)) (<= 0 (+ ?v_116 ?v_126)))) (or (or ?v_32 (or ?v_92 ?v_129)) (<= 0 (+ ?v_116 ?v_130)))) (or (or ?v_34 (or ?v_93 ?v_131)) (<= 0 (+ ?v_118 ?v_132)))) (or (or ?v_34 (or ?v_94 ?v_119)) (<= 0 (+ ?v_118 ?v_120)))) (or (or ?v_34 (or ?v_96 ?v_121)) (<= 0 (+ ?v_118 ?v_122)))) (or (or ?v_34 (or ?v_97 ?v_123)) (<= 0 (+ ?v_118 ?v_124)))) (or (or ?v_34 (or ?v_98 ?v_125)) (<= 0 (+ ?v_118 ?v_126)))) (or (or ?v_34 (or ?v_99 ?v_127)) (<= 0 (+ ?v_118 ?v_128)))) (and (or (and (and (and (and (and (and (and (or (or ?v_0 (< 0 (+ ?v_21 1 j_2))) (not (= 0 (+ ?v_134 ?v_133)))) (or (or ?v_7 (< 0 (+ ?v_21 1 ix_5))) (not (= 0 (+ ?v_134 ?v_135))))) (or (or ?v_25 (< 0 (+ ?v_21 1 ix_4))) (not ?v_148))) (or (or ?v_28 (< 0 (+ ?v_21 1 ix_3))) (not (= 0 (+ ?v_134 ?v_137))))) (or (or ?v_30 (< 0 (+ ?v_21 1 i_1))) (not (= 0 (+ ?v_134 ?v_138))))) (or (or ?v_32 (< 0 (+ ?v_21 1 i2))) (not (= 0 (+ ?v_134 ?v_139))))) (or (or ?v_34 ?v_145) (not (= 0 (+ ?v_134 ?v_103))))) (and (and (and (and (and (and (or (or ?v_0 (< 0 (+ ?v_18 1 j_2))) (not (= 0 (+ ?v_134 ?v_140)))) (or (or ?v_7 (< 0 (+ ?v_18 1 ix_5))) (not (= 0 (+ ?v_134 ?v_141))))) (or (or ?v_25 (< 0 (+ ?v_18 1 ix_4))) (not (= 0 (+ ?v_134 ?v_142))))) (or (or ?v_28 (< 0 (+ ?v_18 1 ix_3))) (not ?v_149))) (or (or ?v_30 (< 0 (+ ?v_18 1 i_1))) (not (= 0 (+ ?v_134 ?v_144))))) (or (or ?v_32 ?v_145) (not (= 0 (+ ?v_134 ?v_106))))) (or (or ?v_34 (< 0 (+ ?v_18 1 i1))) (not (= 0 (+ ?v_134 ?v_146)))))) (and (and (<= 0 ix_5) (<= 0 (+ ?v_3 k (- 1)))) ?v_147)) (or (and (and (and (and (and (and (or ?v_104 (not (= 0 (+ ?v_134 ?v_132)))) (or ?v_107 (not ?v_147))) (or ?v_109 (not (= 0 (+ ?v_134 ?v_122))))) (or ?v_111 (not (= 0 (+ ?v_134 ?v_124))))) (or ?v_113 (not (= 0 (+ ?v_134 ?v_126))))) (or ?v_115 (not (= 0 (+ ?v_134 ?v_128))))) (or ?v_117 (not (= 0 (+ ?v_134 ?v_130))))) (or (and (and (<= 0 ix_4) (<= 0 (+ ?v_8 i1 (- 1)))) ?v_148) (and (and (<= 0 ix_3) (<= 0 (+ ?v_12 i2 (- 1)))) ?v_149))))))))))))))))))) ?v_150))) (and (and (<= 0 i_1) (and (<= 0 ?v_151) (<= 0 (+ ?v_4 length1 length2 (- 1))))) (< 0 ?v_152)))))))))))))))))))))))))
; --- Injected Array Sum Constraint ---
(assert (sum a1 (+ j_2 (+ i_1 length4))))
(assert (sum a1 (+ k (+ length5 e))))
(assert (sum a2 (+ j_2 (+ i2 i1))))
(assert (sum a1_0 (+ i1 (+ i_1 length3))))
(assert (sum a1 (+ length4 (+ e k))))
(check-sat)
(exit)